<instance format="XCSP3" type="CSP">
  <variables>
    <var id="RO"> 0 1 </var>
    <var id="F1"> 0 1 </var>
    <var id="F2"> 0 1 </var>
    <var id="F3"> 0 1 </var>
    <var id="F4"> 0 1 </var>
    <var id="F5"> 0 1 </var>
    <var id="F6"> 0 1 </var>
    <var id="F7"> 0 1 </var>
    <var id="F8"> 0 1 </var>
    <var id="F9"> 0 1 </var>
  </variables>

  <constraints>
    <intension>
      <function> eq(RO, 1) </function>
    </intension>

    <intension>
      <function> eq(F4, F8) </function>
    </intension>

    <intension>
      <function> eq(RO, F1) </function>
    </intension>

    <intension>
      <function> eq(F1, F6) </function>
    </intension>

    <intension>
      <function> ge(F1, F5) </function>
    </intension>

    <intension>
      <function> ge(F4, F9) </function>
    </intension>

    <intension>
      <function> ge(F3, F7) </function>
    </intension>

    <intension>
      <function> gt(add(sub(1, F8), F7), 0) </function>
    </intension>

    <intension>
      <function> gt(add(sub(1, F8), F9), 0) </function>
    </intension>

    <intension>
      <function> gt(add(sub(1, F3), sub(1, F8)), 0) </function>
    </intension>

    <intension>
      <function> gt(add(sub(1, F3), sub(1, F8)), 0) </function>
    </intension>

    <intension>
      <function> eq(add(F2, F3, F4)) </function>
    </intension>
  </constraints>
</instance>
